120
150
44
47
59
42
60
49
51
50
55
51
40
55
52
47
60
55
54
44
49
41
59
55
52
42
51
58
55
51
50
60
58
43
52
49
59
42
60
49
41
54
56
60
48
44
50
59
59
48
49
57
49
58
56
50
47
56
53
41
40
42
47
44
54
44
43
52
48
50
51
57
44
60
50
43
48
59
52
45
47
48
41
42
59
51
50
41
56
49
48
40
40
52
55
60
46
49
56
47
57
48
51
43
51
44
47
48
43
50
50
50
60
42
60
43
45
51
44
55
60
41
